DIMENSION :16
NODE_COORD_SECTION
1 47.31985098555208 17.901258640911166
2 0.7159362264384157 -71.97861445901377
3 -2.957879624390671 -93.32639932077788
4 32.59242816486153 7.498595132833572
5 -86.07308039830129 -12.748282018969803
6 -82.10579505942748 77.90953008215376
7 -72.9401319844032 9.24636244821096
8 -88.53996038908696 -18.250487361011068
9 6.5827446252273205 80.25454503666165
10 -45.780767880659326 -70.13841343993036
11 -34.19988791991892 -32.42174050268862
12 -58.861888954745844 66.38968198821479
13 48.86738055535392 -25.631064556567253
14 33.64992550389323 -18.07237069155923
15 60.38958439767913 7.903864093294715
16 3.854486805828202 93.05857195981451
EOF
